p cnf 14 64
4 5 8 0
-6 -7 -12 0
-1 2 -6 0
-7 8 -14 0
8 -9 -10 0
3 4 -10 0
1 6 -11 0
-1 2 -11 0
1 3 -6 0
-4 5 -13 0
3 8 13 0
-4 -6 -8 0
-1 4 -13 0
-10 -12 -14 0
-1 10 -14 0
3 -4 7 0
-1 -8 -12 0
-4 -9 -11 0
-5 7 11 0
-1 -7 9 0
3 8 -13 0
1 -2 11 0
3 -6 14 0
3 -7 -10 0
5 -6 -13 0
4 -6 -13 0
-5 -6 12 0
4 -10 -11 0
-6 -8 11 0
-1 4 -8 0
-3 10 11 0
2 5 -14 0
-3 5 11 0
-7 8 -10 0
-3 6 -9 0
1 -3 -12 0
3 -4 -7 0
-1 -6 -10 0
2 -3 -14 0
6 9 -12 0
-2 3 4 0
6 -10 14 0
-1 -2 -4 0
-1 -7 -14 0
-3 8 14 0
-4 -7 11 0
-8 12 -13 0
-1 9 -12 0
-5 -7 -11 0
2 -3 8 0
7 -10 -13 0
-2 -11 12 0
4 10 -14 0
2 -5 -11 0
-4 6 -8 0
-2 10 13 0
5 -7 12 0
-2 -6 -7 0
-4 -9 10 0
3 -4 -6 0
-6 9 13 0
-4 -7 -12 0
1 4 -7 0
-8 -11 -14 0
